c   #vars: 41   #clauses: 177   #literals: 516
c 
p cnf 41 177
-1 -2 0
18 19 33 34 0
-3 -4 0
-5 -6 0
-7 -8 0
-9 -10 0
-16 -17 40 41 0
16 17 -40 -41 0
-11 -12 0
-13 -14 0
20 -32 38 39 0
-16 -17 0
-18 -19 0
21 28 29 -40 0
-1 -13 -14 -34 0
-22 -23 0
-5 7 8 25 0
11 12 15 -35 0
-26 -27 0
-28 -29 0
-30 -31 0
16 17 -25 37 0
-33 -34 0
-35 -36 0
-7 -17 25 37 0
1 2 30 31 0
-2 -13 -14 -33 0
-7 -12 25 37 0
-38 -39 0
-40 -41 0
11 12 -13 15 0
5 6 -20 32 0
-1 -26 0
-2 -27 0
3 4 22 23 0
-1 -30 0
-2 -31 0
-1 -32 0
-12 16 17 37 0
-1 -35 0
-2 -36 0
3 4 -13 24 0
-13 24 38 39 0
-3 24 38 39 0
3 4 24 -38 0
-3 -22 0
-4 -23 0
5 6 25 -37 0
-4 -24 0
9 10 33 34 0
-3 -26 0
-4 -27 0
9 10 22 23 0
-3 -30 0
-4 -31 0
5 6 40 41 0
-3 -35 0
-4 -36 0
11 12 40 41 0
-6 -25 0
1 2 26 27 0
-5 -32 0
11 12 -25 37 0
9 10 30 31 0
-5 -38 0
-6 -39 0
-5 -40 0
-6 -41 0
7 8 18 19 0
-7 -18 0
-8 -19 0
13 14 20 -38 0
-8 -25 0
21 -33 40 41 0
-7 -26 0
-8 -27 0
26 27 40 41 0
-7 -38 0
-8 -39 0
16 17 28 29 0
9 10 28 29 0
-9 -16 0
-10 -17 0
3 4 30 31 0
-9 -22 0
-10 -23 0
-13 -14 -33 -34 0
-9 -28 0
-10 -29 0
18 19 30 31 0
-9 -30 0
-10 -31 0
-9 -33 0
-10 -34 0
3 4 26 27 0
-11 15 35 36 0
26 27 28 29 0
-11 13 14 15 0
13 14 15 -35 0
-13 20 38 39 0
-12 -15 0
13 14 35 36 0
-11 -16 0
-12 -17 0
-11 -22 0
-12 -23 0
13 14 24 -38 0
-11 -37 0
21 -28 40 41 0
13 14 28 29 0
-11 -40 0
-12 -41 0
13 14 20 -32 0
-5 -12 25 37 0
-14 -15 0
21 28 29 -33 0
-14 -20 0
5 6 -7 25 0
-14 -24 0
3 4 35 36 0
-13 -28 0
-14 -29 0
11 12 22 23 0
-13 -35 0
-14 -36 0
11 12 16 17 0
-2 -13 20 32 0
9 10 16 17 0
-5 -17 25 37 0
-15 -36 0
1 2 35 36 0
-16 -28 0
-17 -29 0
-16 -30 0
-17 -31 0
-16 -37 0
-3 13 14 24 0
-18 -30 0
-19 -31 0
1 2 -20 32 0
-18 -33 0
-19 -34 0
7 8 25 -37 0
-18 -35 0
-19 -36 0
7 8 38 39 0
21 33 34 -40 0
11 12 -17 37 0
21 -28 33 34 0
-20 -39 0
1 2 -6 32 0
-1 -2 -13 -14 0
-21 -29 0
5 6 38 39 0
1 2 -33 -34 0
-21 -34 0
22 23 40 41 0
-1 -2 33 34 0
-21 -41 0
7 8 26 27 0
-22 -40 0
-23 -41 0
-24 -39 0
-2 20 32 -38 0
-6 20 32 -38 0
-13 15 35 36 0
-2 5 6 32 0
-6 -13 20 32 0
18 19 35 36 0
-26 -28 0
-27 -29 0
26 27 30 31 0
-26 -30 0
-27 -31 0
16 17 30 31 0
-26 -40 0
-27 -41 0
